p tw 69 588
0 1
0 2
0 3
0 4
0 5
0 6
0 7
0 8
0 9
0 12
0 15
0 19
0 22
0 38
0 39
0 40
0 41
0 42
0 43
0 44
1 2
1 3
1 4
1 5
1 6
1 7
1 8
1 9
1 20
1 21
1 25
1 46
1 52
1 57
1 65
1 66
1 67
1 68
2 3
2 4
2 5
2 6
2 7
2 8
2 9
2 14
2 19
2 26
2 30
2 31
2 32
2 33
2 34
2 35
2 36
2 37
2 12
2 15
2 22
2 38
2 39
2 40
2 41
2 42
2 43
2 44
3 4
3 5
3 6
3 7
3 8
3 9
3 10
3 11
3 12
3 13
3 14
3 15
3 16
3 17
3 18
3 19
3 20
3 21
4 5
4 6
4 7
4 8
4 9
4 21
4 22
4 23
4 24
4 25
4 26
4 27
4 28
4 29
5 6
5 7
5 8
5 9
5 27
5 31
5 36
5 43
5 45
5 46
5 47
5 48
5 49
5 50
5 51
6 7
6 8
6 9
6 34
6 37
6 46
6 58
6 59
6 60
6 61
6 62
6 63
6 64
7 8
7 9
7 21
7 22
7 23
7 24
7 25
7 26
7 27
7 28
7 29
7 14
7 19
7 30
7 31
7 32
7 33
7 34
7 35
7 36
7 37
8 9
9 27
9 31
9 36
9 43
9 45
9 46
9 47
9 48
9 49
9 50
9 51
9 20
9 21
9 25
9 52
9 57
9 65
9 66
9 67
9 68
10 11
10 12
10 13
10 14
10 15
10 16
10 17
10 18
10 19
10 20
10 21
11 12
11 13
11 14
11 15
11 16
11 17
11 18
11 19
11 20
11 21
11 28
11 36
11 40
11 48
11 52
11 53
11 54
11 55
11 56
11 57
12 13
12 14
12 15
12 16
12 17
12 18
12 19
12 20
12 21
12 22
12 38
12 39
12 40
12 41
12 42
12 43
12 44
12 28
12 36
12 48
12 52
12 53
12 54
12 55
12 56
12 57
13 14
13 15
13 16
13 17
13 18
13 19
13 20
13 21
14 15
14 16
14 17
14 18
14 19
14 20
14 21
14 26
14 30
14 31
14 32
14 33
14 34
14 35
14 36
14 37
15 16
15 17
15 18
15 19
15 20
15 21
15 22
15 38
15 39
15 40
15 41
15 42
15 43
15 44
15 28
15 36
15 48
15 52
15 53
15 54
15 55
15 56
15 57
16 17
16 18
16 19
16 20
16 21
17 18
17 19
17 20
17 21
18 19
18 20
18 21
19 20
19 21
19 26
19 30
19 31
19 32
19 33
19 34
19 35
19 36
19 37
19 22
19 38
19 39
19 40
19 41
19 42
19 43
19 44
20 21
20 25
20 46
20 52
20 57
20 65
20 66
20 67
20 68
21 22
21 23
21 24
21 25
21 26
21 27
21 28
21 29
21 46
21 52
21 57
21 65
21 66
21 67
21 68
22 23
22 24
22 25
22 26
22 27
22 28
22 29
22 38
22 39
22 40
22 41
22 42
22 43
22 44
23 24
23 25
23 26
23 27
23 28
23 29
24 25
24 26
24 27
24 28
24 29
25 26
25 27
25 28
25 29
25 46
25 52
25 57
25 65
25 66
25 67
25 68
26 27
26 28
26 29
26 30
26 31
26 32
26 33
26 34
26 35
26 36
26 37
27 28
27 29
27 31
27 36
27 43
27 45
27 46
27 47
27 48
27 49
27 50
27 51
28 29
28 36
28 40
28 48
28 52
28 53
28 54
28 55
28 56
28 57
30 31
30 32
30 33
30 34
30 35
30 36
30 37
31 32
31 33
31 34
31 35
31 36
31 37
31 43
31 45
31 46
31 47
31 48
31 49
31 50
31 51
32 33
32 34
32 35
32 36
32 37
33 34
33 35
33 36
33 37
34 35
34 36
34 37
34 46
34 58
34 59
34 60
34 61
34 62
34 63
34 64
35 36
35 37
36 37
36 43
36 45
36 46
36 47
36 48
36 49
36 50
36 51
36 40
36 52
36 53
36 54
36 55
36 56
36 57
37 46
37 58
37 59
37 60
37 61
37 62
37 63
37 64
38 39
38 40
38 41
38 42
38 43
38 44
39 40
39 41
39 42
39 43
39 44
40 41
40 42
40 43
40 44
40 48
40 52
40 53
40 54
40 55
40 56
40 57
41 42
41 43
41 44
42 43
42 44
43 44
43 45
43 46
43 47
43 48
43 49
43 50
43 51
45 46
45 47
45 48
45 49
45 50
45 51
46 47
46 48
46 49
46 50
46 51
46 58
46 59
46 60
46 61
46 62
46 63
46 64
46 52
46 57
46 65
46 66
46 67
46 68
47 48
47 49
47 50
47 51
48 49
48 50
48 51
48 52
48 53
48 54
48 55
48 56
48 57
49 50
49 51
50 51
52 53
52 54
52 55
52 56
52 57
52 65
52 66
52 67
52 68
53 54
53 55
53 56
53 57
54 55
54 56
54 57
55 56
55 57
56 57
57 65
57 66
57 67
57 68
58 59
58 60
58 61
58 62
58 63
58 64
59 60
59 61
59 62
59 63
59 64
60 61
60 62
60 63
60 64
61 62
61 63
61 64
62 63
62 64
63 64
65 66
65 67
65 68
66 67
66 68
67 68
